
Gurobi 12.0.3 (win64, Python) logging started Fri Nov 21 12:22:14 2025

Set parameter Username
Set parameter LicenseID to value 2742844
Set parameter LogFile to value "gurobi.log"
Academic license - for non-commercial use only - expires 2026-11-21
